(set-option :print-success false)
(set-logic QF_UF)
(declare-sort x112 0)
(declare-sort x88 0)
(declare-fun x130 () x88)
(declare-fun x73 () x88)
(declare-fun x124 () x88)
(declare-fun x119 (x88 x88) x88)
(declare-fun x45 () x88)
(declare-fun x118 () x88)
(assert (not (and (= x73 (x119 x130 x130)) (and (= x124 (x119 x118 x45)) (and (= (x119 x118 x118) x45) (= (x119 x130 x73) x118))))))
(assert (not (and (and (= (x119 x45 x73) x118) (and (= (x119 x124 x130) x45) (= (x119 x45 x45) x73))) (= (x119 x124 x124) x130))))
(assert (let ((x26 (x119 x130 x130)) (x101 (x119 x118 x118)) (x37 (x119 x73 x73)) (x94 (x119 x45 x45)) (x154 (x119 x124 x124))) (or (and (not (= x118 x101)) (and (not (= x26 x118)) (and (and (not (= x154 x118)) (not (= x118 x94))) (not (= x118 x37))))) (or (or (and (not (= x73 x101)) (and (and (and (not (= x73 x154)) (not (= x94 x73))) (not (= x73 x37))) (not (= x73 x26)))) (or (and (not (= x101 x45)) (and (and (not (= x37 x45)) (and (not (= x94 x45)) (not (= x45 x154)))) (not (= x26 x45)))) (and (and (and (not (= x124 x37)) (and (not (= x124 x154)) (not (= x94 x124)))) (not (= x26 x124))) (not (= x124 x101))))) (and (not (= x130 x101)) (and (not (= x26 x130)) (and (not (= x130 x37)) (and (not (= x154 x130)) (not (= x130 x94))))))))))
(assert (let ((x37 (x119 x73 x124)) (x3 (x119 x45 x45)) (x139 (x119 x45 x73)) (x92 (x119 x130 x73)) (x109 (x119 x118 x73)) (x72 (x119 x124 x73)) (x76 (x119 x124 x45)) (x23 (x119 x73 x45)) (x75 (x119 x124 x130)) (x7 (x119 x118 x118)) (x65 (x119 x45 x130)) (x26 (x119 x130 x124)) (x69 (x119 x118 x45)) (x101 (x119 x118 x124)) (x51 (x119 x118 x130)) (x154 (x119 x124 x124)) (x94 (x119 x45 x124)) (x55 (x119 x73 x130)) (x38 (x119 x73 x73)) (x57 (x119 x130 x118)) (x97 (x119 x73 x118)) (x134 (x119 x130 x130)) (x66 (x119 x124 x118)) (x103 (x119 x130 x45)) (x115 (x119 x45 x118))) (and (and (and (not (= x7 x51)) (and (not (= x7 x109)) (and (not (= x109 x51)) (and (not (= x69 x7)) (and (and (and (and (and (not (= x69 x101)) (not (= x109 x101))) (not (= x51 x101))) (not (= x7 x101))) (not (= x69 x109))) (not (= x69 x51))))))) (and (and (and (not (= x92 x57)) (and (and (and (and (and (not (= x57 x26)) (and (not (= x26 x134)) (and (not (= x26 x92)) (not (= x103 x26))))) (not (= x92 x103))) (not (= x134 x103))) (not (= x103 x57))) (not (= x134 x92)))) (not (= x57 x134))) (and (and (and (and (not (= x55 x38)) (and (and (and (and (and (not (= x55 x37)) (and (not (= x37 x23)) (not (= x37 x38)))) (not (= x37 x97))) (not (= x23 x38))) (not (= x23 x55))) (not (= x97 x23)))) (not (= x38 x97))) (not (= x97 x55))) (and (and (not (= x65 x115)) (and (and (not (= x139 x65)) (and (and (not (= x65 x3)) (and (and (and (not (= x94 x65)) (and (not (= x139 x94)) (not (= x3 x94)))) (not (= x94 x115))) (not (= x3 x139)))) (not (= x115 x3)))) (not (= x139 x115)))) (and (not (= x75 x66)) (and (not (= x72 x66)) (and (and (and (and (and (and (and (not (= x72 x154)) (not (= x76 x154))) (not (= x75 x154))) (not (= x66 x154))) (not (= x72 x76))) (not (= x75 x76))) (not (= x76 x66))) (not (= x75 x72))))))))) (and (and (not (= x7 x57)) (and (not (= x7 x97)) (and (and (not (= x7 x115)) (and (and (and (not (= x66 x7)) (and (not (= x57 x66)) (and (not (= x66 x115)) (not (= x97 x66))))) (not (= x115 x97))) (not (= x115 x57)))) (not (= x57 x97))))) (and (and (and (not (= x55 x51)) (and (and (and (not (= x134 x65)) (and (not (= x55 x65)) (and (not (= x75 x51)) (and (not (= x134 x75)) (and (not (= x75 x55)) (not (= x75 x65))))))) (not (= x65 x51))) (not (= x134 x55)))) (not (= x51 x134))) (and (and (and (not (= x103 x69)) (and (not (= x69 x23)) (and (not (= x23 x103)) (and (and (not (= x103 x3)) (and (not (= x23 x3)) (and (and (not (= x103 x76)) (and (not (= x23 x76)) (not (= x76 x3)))) (not (= x69 x76))))) (not (= x69 x3)))))) (and (and (not (= x37 x101)) (and (not (= x26 x37)) (and (not (= x94 x101)) (and (not (= x26 x94)) (and (and (and (and (not (= x154 x94)) (not (= x154 x37))) (not (= x26 x154))) (not (= x101 x154))) (not (= x94 x37))))))) (not (= x101 x26)))) (and (and (and (not (= x38 x92)) (and (and (not (= x92 x139)) (and (not (= x38 x139)) (and (and (not (= x72 x92)) (and (not (= x72 x38)) (not (= x72 x139)))) (not (= x72 x109))))) (not (= x109 x139)))) (not (= x109 x38))) (not (= x109 x92)))))))))
(assert (not (and (and (= (x119 x45 x118) x130) (and (= (x119 x73 x124) x45) (= (x119 x45 x45) x118))) (= x124 (x119 x73 x73)))))
(assert (not (and (= (x119 x73 x73) x130) (and (and (= x45 (x119 x73 x130)) (= x124 (x119 x45 x45))) (= (x119 x45 x124) x118)))))
(assert (not (and (= x45 (x119 x118 x118)) (and (= (x119 x73 x130) x124) (and (= x73 (x119 x118 x45)) (= (x119 x73 x73) x130))))))
(assert (not (and (and (= x124 (x119 x73 x45)) (and (= x45 (x119 x73 x73)) (= (x119 x118 x130) x73))) (= (x119 x118 x118) x130))))
(assert (not (and (and (= x73 (x119 x130 x124)) (and (= x124 (x119 x130 x130)) (= x130 (x119 x118 x45)))) (= x45 (x119 x118 x118)))))
(assert (not (and (= (x119 x45 x45) x124) (and (= x73 (x119 x118 x130)) (and (= x130 (x119 x118 x118)) (= x118 (x119 x45 x124)))))))
(assert (not (and (and (= x45 (x119 x124 x73)) (and (= x73 (x119 x124 x124)) (= (x119 x118 x130) x124))) (= x130 (x119 x118 x118)))))
(assert (not (and (= (x119 x45 x45) x130) (and (= (x119 x124 x118) x73) (and (= x118 (x119 x124 x124)) (= (x119 x45 x130) x124))))))
(assert (not (and (= x45 (x119 x130 x130)) (and (= x73 (x119 x118 x124)) (and (= (x119 x118 x118) x124) (= (x119 x130 x45) x118))))))
(assert (not (and (= x45 (x119 x73 x73)) (and (= (x119 x124 x130) x118) (and (= x124 (x119 x73 x45)) (= x130 (x119 x124 x124)))))))
(assert (not (and (and (= x73 (x119 x118 x124)) (and (= (x119 x45 x130) x118) (= x124 (x119 x118 x118)))) (= (x119 x45 x45) x130))))
(assert (not (and (= x130 (x119 x73 x73)) (and (= (x119 x45 x118) x124) (and (= x118 (x119 x45 x45)) (= x45 (x119 x73 x130)))))))
(assert (not (and (= x118 (x119 x124 x124)) (and (and (= (x119 x130 x130) x45) (= (x119 x124 x118) x130)) (= x73 (x119 x130 x45))))))
(assert (not (and (and (and (= x45 (x119 x124 x124)) (= (x119 x118 x130) x124)) (= x73 (x119 x124 x45))) (= x130 (x119 x118 x118)))))
(assert (not (and (and (= (x119 x73 x118) x45) (and (= (x119 x130 x124) x73) (= x118 (x119 x73 x73)))) (= (x119 x130 x130) x124))))
(assert (not (and (= (x119 x73 x73) x130) (and (and (= x118 (x119 x124 x124)) (= (x119 x73 x130) x124)) (= x45 (x119 x124 x118))))))
(assert (not (and (= x45 (x119 x118 x118)) (and (= x130 (x119 x124 x73)) (and (= x124 (x119 x118 x45)) (= x73 (x119 x124 x124)))))))
(assert (not (and (and (= (x119 x45 x118) x130) (and (= x45 (x119 x124 x73)) (= x118 (x119 x45 x45)))) (= (x119 x124 x124) x73))))
(assert (let ((x115 (x119 x45 x118)) (x68 (x119 x118 x45)) (x104 (x119 x118 x130)) (x20 (x119 x118 x118)) (x101 (x119 x124 x130)) (x76 (x119 x124 x118)) (x96 (x119 x73 x73)) (x103 (x119 x73 x124)) (x37 (x119 x124 x45)) (x51 (x119 x45 x73)) (x94 (x119 x124 x124)) (x66 (x119 x45 x130)) (x26 (x119 x124 x73)) (x69 (x119 x130 x124)) (x121 (x119 x130 x130)) (x47 (x119 x130 x118)) (x34 (x119 x130 x73)) (x71 (x119 x118 x73)) (x43 (x119 x73 x118)) (x23 (x119 x45 x124)) (x72 (x119 x118 x124)) (x110 (x119 x130 x45)) (x134 (x119 x45 x45)) (x53 (x119 x73 x130)) (x7 (x119 x73 x45))) (let ((x138 (= x130 x134)) (x145 (= x118 x53)) (x144 (= x130 x96)) (x95 (= x118 x37)) (x75 (= x37 x124)) (x120 (= x72 x118)) (x41 (= x115 x73)) (x32 (= x124 x51)) (x148 (= x103 x73)) (x39 (= x110 x124)) (x16 (= x115 x130)) (x11 (= x45 x20)) (x17 (= x124 x47)) (x142 (= x43 x73)) (x54 (= x69 x45)) (x79 (= x130 x51)) (x89 (= x130 x53)) (x10 (= x130 x71)) (x15 (= x118 x121)) (x128 (= x73 x47)) (x84 (= x45 x121)) (x150 (= x45 x96)) (x21 (= x118 x66)) (x8 (= x130 x43)) (x141 (= x51 x45)) (x33 (= x53 x45)) (x90 (= x45 x104)) (x87 (= x45 x115)) (x83 (= x66 x73)) (x57 (= x134 x45)) (x28 (= x101 x124)) (x1 (= x43 x124)) (x29 (= x73 x134)) (x107 (= x66 x130)) (x100 (= x110 x130)) (x19 (= x76 x130)) (x42 (= x7 x118)) (x122 (= x124 x34)) (x153 (= x26 x124)) (x137 (= x45 x71)) (x49 (= x53 x124)) (x136 (= x47 x45)) (x154 (= x124 x94)) (x78 (= x68 x45)) (x155 (= x47 x118)) (x14 (= x76 x45)) (x82 (= x124 x20)) (x108 (= x124 x103)) (x48 (= x130 x7)) (x143 (= x68 x118)) (x158 (= x51 x118)) (x152 (= x45 x43)) (x77 (= x73 x26)) (x85 (= x96 x118)) (x133 (= x73 x34)) (x146 (= x121 x73)) (x105 (= x130 x121)) (x109 (= x23 x124)) (x58 (= x130 x101)) (x74 (= x53 x73)) (x65 (= x134 x124)) (x102 (= x71 x124)) (x157 (= x51 x73)) (x156 (= x72 x45)) (x70 (= x7 x124)) (x131 (= x37 x73)) (x4 (= x124 x121)) (x149 (= x110 x73)) (x139 (= x94 x73)) (x30 (= x115 x118)) (x99 (= x26 x118)) (x12 (= x130 x20)) (x38 (= x130 x94)) (x6 (= x101 x73)) (x151 (= x124 x72)) (x52 (= x69 x130)) (x56 (= x73 x68)) (x140 (= x104 x124)) (x97 (= x45 x37)) (x31 (= x124 x66)) (x22 (= x110 x45)) (x111 (= x130 x34)) (x113 (= x73 x23)) (x123 (= x73 x69)) (x25 (= x68 x130)) (x64 (= x34 x118)) (x92 (= x118 x94)) (x116 (= x124 x68)) (x62 (= x118 x69)) (x44 (= x104 x73)) (x125 (= x118 x43)) (x86 (= x130 x72)) (x114 (= x45 x7)) (x106 (= x73 x76)) (x98 (= x103 x45)) (x59 (= x96 x124)) (x126 (= x76 x118)) (x93 (= x26 x45)) (x2 (= x103 x130)) (x3 (= x45 x94)) (x36 (= x115 x124)) (x132 (= x26 x130)) (x129 (= x118 x23)) (x91 (= x124 x76)) (x35 (= x96 x73)) (x50 (= x118 x110)) (x9 (= x45 x34)) (x63 (= x101 x45)) (x46 (= x104 x130)) (x24 (= x118 x20)) (x81 (= x118 x104)) (x13 (= x20 x73)) (x117 (= x130 x23)) (x40 (= x73 x72)) (x5 (= x73 x71)) (x18 (= x130 x47)) (x55 (= x45 x23)) (x147 (= x7 x73)) (x27 (= x134 x118)) (x135 (= x118 x71)) (x67 (= x103 x118)) (x61 (= x124 x69)) (x127 (= x101 x118)) (x80 (= x66 x45)) (x60 (= x37 x130))) (and (and (and (and (and (and (and (or (or (or x2 (or x117 x38)) x52) x86) (or (or (or x132 (or x60 x38)) x58) x19)) (and (and (or (or x6 (or (or x131 x139) x77)) x106) (or (or x123 (or (or x139 x113) x148)) x40)) (and (and (or x14 (or x63 (or (or x3 x97) x93))) (or (or (or (or x3 x55) x98) x54) x156)) (and (or (or x61 (or x108 (or x109 x154))) x151) (or (or x28 (or (or x75 x154) x153)) x91))))) (and (or (or (or x99 (or x92 x95)) x127) x126) (or (or x62 (or (or x129 x92) x67)) x120))) (and (and (or (or x21 (or x158 (or x27 x129))) x30) (or (or (or (or x95 x27) x42) x50) x143)) (and (and (and (or (or x149 (or (or x29 x131) x147)) x56) (or (or (or (or x29 x113) x157) x83) x41)) (and (and (or (or (or x70 (or x75 x65)) x39) x116) (or (or (or x32 (or x109 x65)) x31) x36)) (and (or x87 (or x80 (or x141 (or x57 x55)))) (or x78 (or (or x114 (or x57 x97)) x22))))) (and (or x16 (or x107 (or (or x117 x138) x79))) (or x25 (or (or (or x138 x60) x48) x100)))))) (and (and (or (or (or x85 (or x158 x99)) x64) x135) (or (or x145 (or (or x42 x67) x85)) x125)) (and (and (and (and (or (or x9 (or (or x93 x141) x150)) x137) (or (or (or x150 (or x98 x114)) x33) x152)) (and (or x102 (or (or (or x153 x32) x59) x122)) (or (or (or (or x70 x108) x59) x49) x1))) (and (or x142 (or (or (or x147 x148) x35) x74)) (or (or x133 (or (or x77 x157) x35)) x5))) (and (or (or (or (or x132 x79) x144) x111) x10) (or (or (or x144 (or x2 x48)) x89) x8))))) (and (and (or (or (or x64 (or x50 x62)) x15) x155) (or x81 (or x15 (or (or x127 x21) x145)))) (and (and (and (or x128 (or x146 (or x133 (or x149 x123)))) (or (or (or x74 (or x6 x83)) x146) x44)) (and (and (or x136 (or x84 (or (or x54 x22) x9))) (or (or x84 (or x33 (or x80 x63))) x90)) (and (or x17 (or x4 (or x122 (or x61 x39)))) (or x140 (or (or x49 (or x28 x31)) x4))))) (and (or (or (or x111 (or x100 x52)) x105) x18) (or x46 (or x105 (or x89 (or x58 x107)))))))) (and (and (or x24 (or (or (or x30 x126) x125) x155)) (or x24 (or x81 (or (or x120 x143) x135)))) (and (and (or (or (or (or x86 x25) x10) x46) x12) (or x12 (or x18 (or (or x19 x16) x8)))) (and (and (or x13 (or (or (or x41 x106) x142) x128)) (or (or (or (or x56 x40) x5) x44) x13)) (and (and (or x82 (or (or (or x91 x36) x1) x17)) (or x82 (or (or x102 (or x116 x151)) x140))) (and (or (or (or (or x87 x14) x152) x136) x11) (or (or x90 (or x137 (or x156 x78))) x11))))))))))
(assert (not (and (and (and (= (x119 x130 x130) x73) (= x130 (x119 x124 x118))) (= x45 (x119 x130 x73))) (= (x119 x124 x124) x118))))
(assert (not (and (and (and (= x124 (x119 x45 x73)) (= (x119 x124 x124) x118)) (= x130 (x119 x124 x118))) (= x73 (x119 x45 x45)))))
(assert (not (and (= x118 (x119 x73 x73)) (and (= x124 (x119 x45 x130)) (and (= (x119 x73 x118) x45) (= (x119 x45 x45) x130))))))
(assert (not (and (= x118 (x119 x73 x73)) (and (= x45 (x119 x124 x130)) (and (= x130 (x119 x124 x124)) (= x124 (x119 x73 x118)))))))
(assert (not (and (= (x119 x130 x130) x124) (and (and (= x45 (x119 x130 x124)) (= x73 (x119 x45 x45))) (= x118 (x119 x45 x73))))))
(assert (not (and (= (x119 x130 x130) x73) (and (= (x119 x45 x118) x124) (and (= (x119 x130 x73) x45) (= (x119 x45 x45) x118))))))
(assert (not (and (= (x119 x73 x73) x45) (and (= (x119 x118 x130) x124) (and (= x130 (x119 x118 x118)) (= (x119 x73 x45) x118))))))
(assert (not (and (= (x119 x124 x124) x73) (and (and (= (x119 x45 x45) x130) (= (x119 x124 x73) x45)) (= x118 (x119 x45 x130))))))
(assert (not (and (= x73 (x119 x45 x45)) (and (= (x119 x124 x130) x118) (and (= (x119 x45 x73) x124) (= (x119 x124 x124) x130))))))
(assert (not (and (= (x119 x118 x118) x73) (and (= x124 (x119 x130 x45)) (and (= x45 (x119 x130 x130)) (= x130 (x119 x118 x73)))))))
(assert (not (and (= (x119 x124 x124) x130) (and (and (= (x119 x124 x130) x73) (= (x119 x73 x73) x45)) (= x118 (x119 x73 x45))))))
(assert (not (and (and (= x73 (x119 x45 x124)) (and (= (x119 x45 x45) x124) (= x45 (x119 x118 x130)))) (= x130 (x119 x118 x118)))))
(assert (not (and (and (and (= (x119 x124 x130) x45) (= (x119 x45 x45) x118)) (= (x119 x45 x118) x73)) (= (x119 x124 x124) x130))))
(assert (not (and (= (x119 x45 x45) x124) (and (= x118 (x119 x130 x73)) (and (= x73 (x119 x130 x130)) (= (x119 x45 x124) x130))))))
(assert (not (and (and (and (= (x119 x130 x118) x124) (= x45 (x119 x124 x124))) (= (x119 x124 x45) x73)) (= x118 (x119 x130 x130)))))
(assert (not (and (and (= (x119 x124 x45) x118) (and (= (x119 x73 x130) x124) (= (x119 x124 x124) x45))) (= (x119 x73 x73) x130))))
(assert (not (and (= (x119 x124 x124) x45) (and (and (= x118 (x119 x130 x130)) (= x130 (x119 x124 x45))) (= x73 (x119 x130 x118))))))
(assert (not (and (and (and (= x130 (x119 x118 x73)) (= (x119 x130 x130) x124)) (= (x119 x130 x124) x45)) (= (x119 x118 x118) x73))))
(assert (not (and (and (and (= (x119 x73 x130) x118) (= (x119 x118 x118) x45)) (= (x119 x118 x45) x124)) (= (x119 x73 x73) x130))))
(assert (not (and (and (= (x119 x130 x124) x45) (and (= (x119 x130 x130) x124) (= x130 (x119 x73 x118)))) (= (x119 x73 x73) x118))))
(assert (not (and (and (and (= x73 (x119 x45 x45)) (= (x119 x118 x130) x45)) (= (x119 x45 x73) x124)) (= x130 (x119 x118 x118)))))
(assert (not (and (and (= x130 (x119 x45 x124)) (and (= (x119 x45 x45) x124) (= x45 (x119 x118 x73)))) (= (x119 x118 x118) x73))))
(assert (not (and (and (and (= x45 (x119 x73 x73)) (= x73 (x119 x130 x118))) (= x124 (x119 x73 x45))) (= (x119 x130 x130) x118))))
(assert (not (and (and (and (= x73 (x119 x130 x45)) (= (x119 x73 x73) x118)) (= (x119 x73 x118) x124)) (= x45 (x119 x130 x130)))))
(assert (not (and (and (= x45 (x119 x130 x73)) (and (= x73 (x119 x130 x130)) (= (x119 x118 x124) x130))) (= x124 (x119 x118 x118)))))
(assert (not (and (and (and (= (x119 x130 x130) x45) (= (x119 x118 x124) x130)) (= x73 (x119 x130 x45))) (= (x119 x118 x118) x124))))
(assert (not (and (= x124 (x119 x73 x73)) (and (and (= (x119 x73 x124) x130) (= (x119 x130 x130) x118)) (= x45 (x119 x130 x118))))))
(assert (not (and (= x124 (x119 x45 x45)) (and (= x130 (x119 x118 x73)) (and (= x73 (x119 x118 x118)) (= x118 (x119 x45 x124)))))))
(assert (not (and (and (and (= (x119 x130 x73) x124) (= (x119 x124 x124) x45)) (= x118 (x119 x124 x45))) (= x73 (x119 x130 x130)))))
(assert (not (and (and (and (= x73 (x119 x118 x130)) (= x124 (x119 x73 x73))) (= x45 (x119 x73 x124))) (= x130 (x119 x118 x118)))))
(assert (not (and (and (and (= (x119 x118 x45) x130) (= x73 (x119 x130 x130))) (= x124 (x119 x130 x73))) (= (x119 x118 x118) x45))))
(assert (not (and (= x118 (x119 x45 x45)) (and (= (x119 x130 x124) x73) (and (= (x119 x45 x118) x130) (= x124 (x119 x130 x130)))))))
(assert (not (and (and (= x45 (x119 x118 x73)) (and (= x118 (x119 x130 x124)) (= (x119 x118 x118) x73))) (= (x119 x130 x130) x124))))
(assert (not (and (= x45 (x119 x118 x118)) (and (and (= (x119 x118 x45) x73) (= (x119 x73 x73) x124)) (= x130 (x119 x73 x124))))))
(assert (not (and (and (and (= (x119 x124 x118) x45) (= x73 (x119 x45 x45))) (= (x119 x45 x73) x130)) (= (x119 x124 x124) x118))))
(assert (not (and (and (and (= x45 (x119 x124 x124)) (= (x119 x118 x73) x124)) (= (x119 x124 x45) x130)) (= x73 (x119 x118 x118)))))
(assert (not (and (and (and (= x73 (x119 x118 x118)) (= x118 (x119 x124 x130))) (= x45 (x119 x118 x73))) (= (x119 x124 x124) x130))))
(assert (not (and (= x118 (x119 x130 x130)) (and (= x73 (x119 x45 x124)) (and (= (x119 x45 x45) x124) (= x45 (x119 x130 x118)))))))
(assert (not (and (= (x119 x124 x124) x130) (and (and (= x118 (x119 x124 x130)) (= x45 (x119 x118 x118))) (= (x119 x118 x45) x73)))))
(assert (not (and (and (= (x119 x124 x118) x45) (and (= (x119 x130 x73) x124) (= (x119 x124 x124) x118))) (= x73 (x119 x130 x130)))))
(assert (not (and (and (and (= (x119 x130 x73) x45) (= x124 (x119 x45 x45))) (= x118 (x119 x45 x124))) (= x73 (x119 x130 x130)))))
(assert (not (and (= (x119 x130 x130) x73) (and (and (= (x119 x118 x118) x124) (= x118 (x119 x130 x73))) (= x45 (x119 x118 x124))))))
(assert (not (and (= (x119 x124 x124) x118) (and (and (= (x119 x45 x45) x130) (= (x119 x124 x118) x45)) (= (x119 x45 x130) x73)))))
(assert (not (and (and (= (x119 x45 x73) x124) (and (= (x119 x130 x118) x45) (= x73 (x119 x45 x45)))) (= x118 (x119 x130 x130)))))
(assert (not (and (and (= (x119 x73 x130) x45) (and (= x73 (x119 x124 x118)) (= x130 (x119 x73 x73)))) (= x118 (x119 x124 x124)))))
(assert (not (and (= x130 (x119 x45 x45)) (and (and (= (x119 x45 x130) x124) (= x73 (x119 x124 x124))) (= (x119 x124 x73) x118)))))
(assert (not (and (and (and (= x130 (x119 x124 x73)) (= x118 (x119 x130 x130))) (= x45 (x119 x130 x118))) (= x73 (x119 x124 x124)))))
(assert (not (and (and (= (x119 x130 x124) x118) (and (= (x119 x130 x130) x124) (= x130 (x119 x45 x73)))) (= (x119 x45 x45) x73))))
(assert (not (and (= x45 (x119 x124 x124)) (and (= (x119 x118 x73) x130) (and (= (x119 x124 x45) x118) (= x73 (x119 x118 x118)))))))
(assert (not (and (and (and (= (x119 x73 x73) x130) (= x73 (x119 x124 x45))) (= x118 (x119 x73 x130))) (= x45 (x119 x124 x124)))))
(assert (not (and (and (and (= x73 (x119 x124 x124)) (= x124 (x119 x45 x118))) (= (x119 x124 x73) x130)) (= (x119 x45 x45) x118))))
(assert (not (and (and (= (x119 x45 x130) x118) (and (= x130 (x119 x45 x45)) (= (x119 x73 x124) x45))) (= (x119 x73 x73) x124))))
(assert (not (and (and (= (x119 x118 x73) x124) (and (= x73 (x119 x118 x118)) (= x118 (x119 x130 x45)))) (= x45 (x119 x130 x130)))))
(assert (not (and (= (x119 x73 x73) x124) (and (and (= x118 (x119 x73 x124)) (= x130 (x119 x118 x118))) (= x45 (x119 x118 x130))))))
(assert (not (and (and (and (= x73 (x119 x118 x124)) (= x45 (x119 x73 x73))) (= x130 (x119 x73 x45))) (= x124 (x119 x118 x118)))))
(assert (not (and (= (x119 x124 x124) x45) (and (and (= x118 (x119 x73 x73)) (= x73 (x119 x124 x45))) (= (x119 x73 x118) x130)))))
(assert (not (and (= x45 (x119 x73 x73)) (and (= (x119 x130 x118) x124) (and (= (x119 x130 x130) x118) (= x130 (x119 x73 x45)))))))
(assert (let ((x139 (x119 x73 x45)) (x55 (x119 x130 x73)) (x23 (x119 x45 x73)) (x65 (x119 x130 x45)) (x51 (x119 x130 x118)) (x101 (x119 x124 x118)) (x69 (x119 x45 x118)) (x38 (x119 x73 x73)) (x66 (x119 x118 x124)) (x72 (x119 x73 x124)) (x26 (x119 x124 x130)) (x92 (x119 x73 x130)) (x134 (x119 x130 x130)) (x115 (x119 x118 x45)) (x75 (x119 x130 x124)) (x57 (x119 x118 x130)) (x109 (x119 x73 x118)) (x154 (x119 x124 x124)) (x76 (x119 x45 x124)) (x103 (x119 x45 x130)) (x97 (x119 x118 x73)) (x37 (x119 x124 x73)) (x3 (x119 x45 x45)) (x94 (x119 x124 x45)) (x7 (x119 x118 x118))) (and (and (and (and (and (and (and (and (or (or (or (= x154 x73) (or (= x154 x45) (= x154 x124))) (= x130 x154)) (= x154 x118)) (or (= x94 x118) (or (= x130 x94) (or (= x94 x73) (or (= x94 x124) (= x45 x94)))))) (or (or (or (= x37 x73) (or (= x37 x45) (= x124 x37))) (= x130 x37)) (= x118 x37))) (or (or (or (= x73 x26) (or (= x26 x124) (= x26 x45))) (= x26 x130)) (= x26 x118))) (or (= x101 x118) (or (or (= x73 x101) (or (= x45 x101) (= x124 x101))) (= x101 x130)))) (and (or (= x69 x118) (or (= x130 x69) (or (or (= x69 x45) (= x69 x124)) (= x73 x69)))) (and (and (or (or (= x130 x23) (or (= x73 x23) (or (= x23 x45) (= x124 x23)))) (= x118 x23)) (and (or (= x118 x3) (or (= x130 x3) (or (= x73 x3) (or (= x3 x124) (= x3 x45))))) (or (= x76 x118) (or (= x76 x130) (or (= x76 x73) (or (= x76 x124) (= x45 x76))))))) (or (or (= x130 x103) (or (= x73 x103) (or (= x45 x103) (= x124 x103)))) (= x103 x118))))) (and (or (or (or (= x73 x109) (or (= x124 x109) (= x109 x45))) (= x109 x130)) (= x118 x109)) (and (or (= x92 x118) (or (= x130 x92) (or (= x92 x73) (or (= x45 x92) (= x124 x92))))) (and (or (or (= x130 x38) (or (or (= x38 x45) (= x124 x38)) (= x38 x73))) (= x38 x118)) (and (or (or (or (or (= x139 x45) (= x139 x124)) (= x73 x139)) (= x139 x130)) (= x118 x139)) (or (= x118 x72) (or (or (= x72 x73) (or (= x45 x72) (= x72 x124))) (= x130 x72)))))))) (and (and (and (and (or (or (= x130 x65) (or (= x73 x65) (or (= x65 x124) (= x45 x65)))) (= x65 x118)) (or (or (= x130 x75) (or (= x75 x73) (or (= x75 x124) (= x75 x45)))) (= x118 x75))) (or (= x55 x118) (or (= x55 x130) (or (or (= x55 x45) (= x124 x55)) (= x73 x55))))) (or (= x134 x118) (or (or (or (= x134 x45) (= x134 x124)) (= x73 x134)) (= x134 x130)))) (or (= x51 x118) (or (or (= x73 x51) (or (= x51 x124) (= x45 x51))) (= x130 x51))))) (and (and (and (or (or (or (= x73 x97) (or (= x45 x97) (= x124 x97))) (= x130 x97)) (= x118 x97)) (and (or (or (= x130 x66) (or (= x66 x73) (or (= x66 x124) (= x66 x45)))) (= x118 x66)) (or (or (= x130 x115) (or (or (= x115 x124) (= x45 x115)) (= x73 x115))) (= x118 x115)))) (or (= x57 x118) (or (= x130 x57) (or (= x57 x73) (or (= x45 x57) (= x124 x57)))))) (or (= x7 x118) (or (or (or (= x45 x7) (= x7 x124)) (= x7 x73)) (= x130 x7)))))))
(assert (not (and (and (and (= x130 (x119 x45 x118)) (= x73 (x119 x130 x130))) (= (x119 x130 x73) x124)) (= (x119 x45 x45) x118))))
(assert (not (and (and (and (= (x119 x124 x130) x73) (= x118 (x119 x73 x73))) (= x45 (x119 x73 x118))) (= (x119 x124 x124) x130))))
(assert (not (and (= (x119 x130 x130) x118) (and (and (= x124 (x119 x130 x118)) (= x73 (x119 x124 x124))) (= (x119 x124 x73) x45)))))
(assert (not (and (= (x119 x73 x73) x45) (and (= x130 (x119 x124 x118)) (and (= x124 (x119 x73 x45)) (= x118 (x119 x124 x124)))))))
(assert (not (and (and (= (x119 x118 x45) x73) (and (= (x119 x130 x124) x118) (= x45 (x119 x118 x118)))) (= x124 (x119 x130 x130)))))
(assert (not (and (and (= x130 (x119 x73 x118)) (and (= (x119 x73 x73) x118) (= x73 (x119 x45 x124)))) (= (x119 x45 x45) x124))))
(assert (not (and (= (x119 x124 x124) x73) (and (and (= x118 (x119 x124 x73)) (= x130 (x119 x118 x118))) (= (x119 x118 x130) x45)))))
(assert (not (and (and (= (x119 x73 x124) x118) (and (= x73 (x119 x130 x45)) (= (x119 x73 x73) x124))) (= (x119 x130 x130) x45))))
(assert (not (and (= x73 (x119 x124 x124)) (and (and (= (x119 x130 x130) x45) (= x130 (x119 x124 x73))) (= (x119 x130 x45) x118)))))
(assert (not (and (= (x119 x124 x124) x45) (and (and (= x130 (x119 x118 x118)) (= x118 (x119 x124 x45))) (= (x119 x118 x130) x73)))))
(assert (and (not (= x118 x130)) (and (not (= x118 x73)) (and (not (= x130 x73)) (and (and (not (= x130 x45)) (and (not (= x73 x45)) (and (and (and (not (= x124 x73)) (not (= x124 x45))) (not (= x124 x130))) (not (= x118 x124))))) (not (= x45 x118)))))))
(assert (not (and (and (and (= x45 (x119 x73 x73)) (= (x119 x124 x118) x73)) (= x130 (x119 x73 x45))) (= x118 (x119 x124 x124)))))
(assert (not (and (and (and (= x124 (x119 x118 x45)) (= x130 (x119 x124 x124))) (= (x119 x124 x130) x73)) (= (x119 x118 x118) x45))))
(assert (not (and (= x118 (x119 x73 x73)) (and (and (= x130 (x119 x73 x118)) (= (x119 x130 x130) x45)) (= (x119 x130 x45) x124)))))
(assert (not (and (= (x119 x118 x118) x73) (and (and (= x124 (x119 x118 x73)) (= x130 (x119 x124 x124))) (= (x119 x124 x130) x45)))))
(assert (not (and (= x124 (x119 x130 x130)) (and (= x118 (x119 x73 x45)) (and (= x73 (x119 x130 x124)) (= x45 (x119 x73 x73)))))))
(assert (not (and (and (= x130 (x119 x118 x124)) (and (= x124 (x119 x118 x118)) (= x118 (x119 x73 x45)))) (= (x119 x73 x73) x45))))
(assert (not (and (and (= (x119 x73 x124) x130) (and (= x73 (x119 x45 x118)) (= (x119 x73 x73) x124))) (= x118 (x119 x45 x45)))))
(assert (not (and (= (x119 x45 x45) x124) (and (= x118 (x119 x73 x130)) (and (= (x119 x73 x73) x130) (= x73 (x119 x45 x124)))))))
(assert (not (and (and (= (x119 x118 x124) x45) (and (= (x119 x118 x118) x124) (= x118 (x119 x73 x130)))) (= x130 (x119 x73 x73)))))
(assert (not (and (= (x119 x124 x124) x45) (and (and (= (x119 x130 x130) x73) (= x130 (x119 x124 x45))) (= (x119 x130 x73) x118)))))
(assert (not (and (= x73 (x119 x45 x45)) (and (and (= (x119 x118 x118) x130) (= x118 (x119 x45 x73))) (= (x119 x118 x130) x124)))))
(assert (let ((x154 (x119 x124 x124)) (x92 (x119 x130 x73)) (x103 (x119 x73 x73)) (x7 (x119 x118 x118)) (x139 (x119 x130 x45)) (x38 (x119 x45 x130)) (x26 (x119 x45 x45)) (x94 (x119 x45 x124)) (x109 (x119 x73 x130)) (x101 (x119 x73 x124)) (x75 (x119 x130 x130)) (x55 (x119 x124 x118)) (x3 (x119 x73 x45)) (x57 (x119 x130 x118)) (x69 (x119 x130 x124)) (x134 (x119 x118 x45)) (x97 (x119 x118 x130)) (x72 (x119 x124 x130)) (x37 (x119 x124 x45)) (x23 (x119 x45 x73)) (x51 (x119 x45 x118)) (x65 (x119 x118 x124)) (x115 (x119 x73 x118)) (x66 (x119 x118 x73)) (x76 (x119 x124 x73))) (and (and (and (or (or (or (not (= x103 x103)) (or (not (= x76 x101)) (not (= x3 x23)))) (not (= x109 x92))) (not (= x66 x115))) (and (or (not (= x65 x55)) (or (not (= x72 x69)) (or (or (not (= x154 x154)) (not (= x94 x37))) (not (= x76 x101))))) (or (or (not (= x38 x139)) (or (or (not (= x26 x26)) (not (= x94 x37))) (not (= x23 x3)))) (not (= x134 x51))))) (or (or (or (or (not (= x72 x69)) (not (= x139 x38))) (not (= x92 x109))) (not (= x75 x75))) (not (= x97 x57)))) (or (not (= x7 x7)) (or (or (not (= x66 x115)) (or (not (= x51 x134)) (not (= x65 x55)))) (not (= x97 x57)))))))
(assert (not (and (and (and (= x118 (x119 x45 x130)) (= (x119 x118 x118) x73)) (= (x119 x118 x73) x124)) (= x130 (x119 x45 x45)))))
(assert (not (and (= x73 (x119 x45 x45)) (and (and (= x118 (x119 x45 x73)) (= x124 (x119 x118 x118))) (= x130 (x119 x118 x124))))))
(assert (not (and (= x73 (x119 x45 x45)) (and (= (x119 x130 x118) x124) (and (= x118 (x119 x130 x130)) (= x130 (x119 x45 x73)))))))
(assert (not (and (and (= (x119 x73 x124) x118) (and (= x73 (x119 x45 x130)) (= x124 (x119 x73 x73)))) (= (x119 x45 x45) x130))))
(assert (not (and (= x124 (x119 x118 x118)) (and (and (= (x119 x118 x124) x45) (= x73 (x119 x45 x45))) (= x130 (x119 x45 x73))))))
(assert (not (and (= (x119 x73 x73) x118) (and (and (= x124 (x119 x45 x45)) (= (x119 x73 x118) x45)) (= x130 (x119 x45 x124))))))
(assert (not (and (and (and (= x124 (x119 x73 x73)) (= (x119 x130 x118) x73)) (= (x119 x73 x124) x45)) (= x118 (x119 x130 x130)))))
(assert (not (and (and (and (= (x119 x73 x45) x130) (= x124 (x119 x130 x130))) (= (x119 x130 x124) x118)) (= (x119 x73 x73) x45))))
(assert (not (and (= x73 (x119 x118 x118)) (and (= x124 (x119 x45 x130)) (and (= x130 (x119 x45 x45)) (= x45 (x119 x118 x73)))))))
(assert (not (and (= x118 (x119 x73 x73)) (and (and (= x124 (x119 x73 x118)) (= (x119 x124 x124) x45)) (= x130 (x119 x124 x45))))))
(assert (not (and (and (= (x119 x124 x73) x118) (and (= x124 (x119 x130 x45)) (= x73 (x119 x124 x124)))) (= x45 (x119 x130 x130)))))
(assert (not (and (= (x119 x45 x45) x118) (and (and (= x130 (x119 x73 x73)) (= (x119 x45 x118) x73)) (= x124 (x119 x73 x130))))))
(assert (not (and (and (and (= x45 (x119 x130 x130)) (= (x119 x73 x124) x130)) (= x118 (x119 x130 x45))) (= x124 (x119 x73 x73)))))
(assert (not (and (and (and (= x45 (x119 x118 x124)) (= x130 (x119 x45 x45))) (= (x119 x45 x130) x73)) (= x124 (x119 x118 x118)))))
(assert (let ((x95 (x119 x118 x124)) (x131 (x119 x45 x124)) (x157 (x119 x118 x73)) (x77 (x119 x73 x118)) (x34 (x119 x73 x73)) (x60 (x119 x124 x130)) (x59 (x119 x73 x45)) (x110 (x119 x124 x124)) (x29 (x119 x124 x73)) (x98 (x119 x45 x130)) (x67 (x119 x130 x130)) (x96 (x119 x45 x118)) (x117 (x119 x73 x124)) (x32 (x119 x45 x73)) (x129 (x119 x124 x118)) (x113 (x119 x124 x45)) (x138 (x119 x130 x124)) (x158 (x119 x118 x130)) (x148 (x119 x73 x130)) (x114 (x119 x130 x45)) (x70 (x119 x45 x45)) (x53 (x119 x118 x45)) (x99 (x119 x130 x118)) (x147 (x119 x130 x73)) (x54 (x119 x118 x118))) (let ((x63 (= x70 x73)) (x5 (= x110 x118)) (x134 (= x53 x124)) (x84 (= x73 x59)) (x8 (= x147 x118)) (x19 (= x114 x118)) (x106 (= x113 x118)) (x120 (= x118 x95)) (x111 (= x73 x129)) (x33 (= x29 x73)) (x47 (= x113 x73)) (x22 (= x45 x54)) (x71 (= x34 x45)) (x153 (= x70 x45)) (x52 (= x67 x73)) (x91 (= x130 x34)) (x3 (= x59 x124)) (x86 (= x32 x118)) (x36 (= x138 x130)) (x128 (= x118 x29)) (x81 (= x96 x118)) (x48 (= x45 x114)) (x136 (= x130 x77)) (x6 (= x114 x73)) (x24 (= x118 x54)) (x78 (= x130 x148)) (x12 (= x67 x118)) (x103 (= x124 x34)) (x58 (= x53 x73)) (x135 (= x53 x118)) (x11 (= x158 x130)) (x100 (= x73 x95)) (x69 (= x138 x124)) (x121 (= x131 x73)) (x85 (= x45 x95)) (x144 (= x148 x45)) (x87 (= x130 x96)) (x97 (= x158 x124)) (x90 (= x130 x95)) (x89 (= x157 x73)) (x44 (= x118 x131)) (x25 (= x118 x34)) (x74 (= x73 x147)) (x64 (= x73 x54)) (x10 (= x138 x118)) (x94 (= x131 x124)) (x2 (= x45 x60)) (x155 (= x99 x118)) (x143 (= x129 x118)) (x132 (= x98 x45)) (x123 (= x73 x34)) (x104 (= x32 x73)) (x43 (= x45 x117)) (x1 (= x60 x130)) (x31 (= x45 x77)) (x55 (= x129 x124)) (x79 (= x45 x147)) (x50 (= x73 x99)) (x116 (= x130 x29)) (x9 (= x73 x110)) (x107 (= x73 x96)) (x141 (= x45 x59)) (x82 (= x98 x130)) (x101 (= x124 x117)) (x76 (= x124 x29)) (x139 (= x114 x124)) (x140 (= x130 x32)) (x125 (= x158 x118)) (x65 (= x124 x95)) (x137 (= x130 x67)) (x4 (= x99 x45)) (x126 (= x118 x157)) (x46 (= x60 x118)) (x38 (= x98 x124)) (x61 (= x45 x129)) (x83 (= x98 x73)) (x93 (= x29 x45)) (x152 (= x130 x157)) (x146 (= x148 x73)) (x28 (= x157 x45)) (x37 (= x113 x124)) (x150 (= x32 x45)) (x115 (= x124 x77)) (x51 (= x96 x124)) (x122 (= x45 x96)) (x26 (= x70 x124)) (x105 (= x77 x73)) (x7 (= x124 x54)) (x154 (= x110 x124)) (x142 (= x117 x118)) (x145 (= x130 x113)) (x15 (= x70 x130)) (x20 (= x130 x129)) (x40 (= x99 x130)) (x21 (= x130 x131)) (x23 (= x124 x32)) (x27 (= x45 x131)) (x49 (= x158 x45)) (x16 (= x118 x98)) (x80 (= x117 x73)) (x68 (= x110 x45)) (x41 (= x118 x70)) (x57 (= x124 x99)) (x30 (= x118 x77)) (x109 (= x124 x148)) (x42 (= x67 x45)) (x66 (= x124 x157)) (x156 (= x130 x147)) (x108 (= x45 x113)) (x149 (= x138 x73)) (x18 (= x118 x148)) (x56 (= x130 x54)) (x127 (= x110 x130)) (x102 (= x130 x59)) (x13 (= x59 x118)) (x72 (= x60 x124)) (x75 (= x124 x67)) (x133 (= x73 x60)) (x92 (= x147 x124)) (x39 (= x45 x53)) (x151 (= x117 x130)) (x35 (= x45 x138)) (x62 (= x73 x158)) (x17 (= x114 x130)) (x14 (= x53 x130))) (and (and (or (or (and x56 x56) (or (or (or (and x14 x87) (and x90 x20)) (and x152 x136)) (and x11 x40))) (or (or (or (or (or (or (and x140 x102) (or (and x145 x21) (and x15 x15))) (and x17 x82)) (and x87 x14)) (or (or (or (or (and x127 x127) (and x21 x145)) (and x116 x151)) (and x36 x1)) (and x90 x20))) (or (or (or (and x91 x91) (or (and x116 x151) (and x140 x102))) (and x78 x156)) (and x152 x136))) (or (and x11 x40) (or (and x137 x137) (or (or (and x82 x17) (and x36 x1)) (and x156 x78)))))) (and (and (or (or (or (or (or (or (and x35 x2) (and x48 x132)) (and x79 x144)) (and x42 x42)) (and x49 x4)) (or (or (or (or (or (and x150 x141) (or (and x153 x153) (and x108 x27))) (and x48 x132)) (and x122 x39)) (or (or (or (or (and x27 x108) (and x68 x68)) (and x43 x93)) (and x2 x35)) (and x85 x61))) (or (or (and x79 x144) (or (or (and x43 x93) (and x150 x141)) (and x71 x71))) (and x31 x28)))) (or (and x22 x22) (or (and x49 x4) (or (or (and x39 x122) (and x85 x61)) (and x31 x28))))) (or (or (and x7 x7) (or (and x97 x57) (or (or (and x55 x65) (and x51 x134)) (and x115 x66)))) (or (or (and x97 x57) (or (and x75 x75) (or (and x92 x109) (or (and x139 x38) (and x72 x69))))) (or (or (or (and x55 x65) (or (or (and x76 x101) (or (and x94 x37) (and x154 x154))) (and x69 x72))) (or (and x51 x134) (or (and x38 x139) (or (or (and x94 x37) (and x26 x26)) (and x3 x23))))) (or (or (or (and x103 x103) (or (and x76 x101) (and x3 x23))) (and x109 x92)) (and x115 x66)))))) (or (or (or (and x62 x50) (or (and x52 x52) (or (or (and x6 x83) (and x133 x149)) (and x74 x146)))) (or (or (or (or (or (or (and x47 x121) (and x9 x9)) (and x33 x80)) (and x133 x149)) (and x100 x111)) (or (and x107 x58) (or (and x83 x6) (or (and x104 x84) (or (and x63 x63) (and x47 x121)))))) (or (and x105 x89) (or (or (or (and x104 x84) (and x80 x33)) (and x123 x123)) (and x146 x74))))) (or (and x64 x64) (or (or (or (and x111 x100) (and x58 x107)) (and x105 x89)) (and x62 x50)))))) (or (or (or (or (or (or (or (or (and x44 x106) (and x41 x41)) (and x13 x86)) (and x16 x19)) (and x135 x81)) (or (and x143 x120) (or (and x10 x46) (or (or (and x44 x106) (and x5 x5)) (and x128 x142))))) (or (and x126 x30) (or (and x18 x8) (or (or (and x128 x142) (and x13 x86)) (and x25 x25))))) (or (or (or (and x18 x8) (or (and x46 x10) (and x19 x16))) (and x12 x12)) (and x125 x155))) (or (and x24 x24) (or (and x125 x155) (or (or (and x120 x143) (and x81 x135)) (and x30 x126)))))))))
(assert (not (and (and (and (= (x119 x130 x124) x45) (= (x119 x45 x45) x118)) (= (x119 x45 x118) x73)) (= x124 (x119 x130 x130)))))
(assert (not (and (= (x119 x118 x118) x124) (and (= (x119 x73 x130) x45) (and (= x130 (x119 x73 x73)) (= x73 (x119 x118 x124)))))))
(assert (not (and (and (= x130 (x119 x118 x45)) (and (= (x119 x124 x73) x118) (= x45 (x119 x118 x118)))) (= x73 (x119 x124 x124)))))
(assert (not (and (= (x119 x130 x130) x45) (and (= x73 (x119 x124 x118)) (and (= x124 (x119 x130 x45)) (= x118 (x119 x124 x124)))))))
(assert (not (and (= (x119 x73 x73) x124) (and (and (= (x119 x118 x118) x45) (= x118 (x119 x73 x124))) (= x130 (x119 x118 x45))))))
(assert (not (and (= (x119 x45 x45) x124) (and (= x73 (x119 x130 x118)) (and (= x118 (x119 x130 x130)) (= x130 (x119 x45 x124)))))))
(assert (not (and (and (and (= (x119 x45 x130) x73) (= x118 (x119 x73 x73))) (= (x119 x73 x118) x124)) (= x130 (x119 x45 x45)))))
(assert (not (and (= x118 (x119 x45 x45)) (and (= (x119 x124 x130) x73) (and (= (x119 x124 x124) x130) (= x124 (x119 x45 x118)))))))
(check-sat)
(exit)
